GLPSOL--GLPK LP/MIP Solver 5.0
Parameter(s) specified in the command line:
 --lp ../modeles/20_354.lp --log 20_354.log
Reading problem data from '../modeles/20_354.lp'...
7161 rows, 14200 columns, 49620 non-zeros
7080 integer variables, all of which are binary
21387 lines were read
GLPK Integer Optimizer 5.0
7161 rows, 14200 columns, 49620 non-zeros
7080 integer variables, all of which are binary
Preprocessing...
7000 constraint coefficient(s) were reduced
7161 rows, 14180 columns, 49600 non-zeros
7080 integer variables, all of which are binary
Scaling...
 A: min|aij| =  1.277e-04  max|aij| =  4.000e+00  ratio =  3.133e+04
GM: min|aij| =  7.516e-02  max|aij| =  1.330e+01  ratio =  1.770e+02
EQ: min|aij| =  5.650e-03  max|aij| =  1.000e+00  ratio =  1.770e+02
2N: min|aij| =  3.906e-03  max|aij| =  1.771e+00  ratio =  4.534e+02
Constructing initial basis...
Size of triangular part is 7161
Solving LP relaxation...
GLPK Simplex Optimizer 5.0
7161 rows, 14180 columns, 49600 non-zeros
      0: obj =   4.000000000e+01 inf =   9.950e+01 (41)
Perturbing LP to avoid stalling [199]...
    419: obj =   1.620752398e-01 inf =   0.000e+00 (0)
Removing LP perturbation [1430]...
*  1430: obj =  -4.471171954e+00 inf =   3.654e-14 (0) 1
OPTIMAL LP SOLUTION FOUND
Integer optimization begins...
Long-step dual simplex will be used
+  1430: mip =     not found yet >=              -inf        (1; 0)
+  1541: >>>>>  -4.471171954e+00 >=  -4.471171954e+00   0.0% (111; 0)
+  1541: mip =  -4.471171954e+00 >=     tree is empty   0.0% (0; 221)
INTEGER OPTIMAL SOLUTION FOUND
Time used:   2.2 secs
Memory used: 20.8 Mb (21790800 bytes)
